MARKOV
69
2 2 2 2 2 2 2 2 2 2 2 2 2 2 2 2 2 2 2 2 2 2 2 2 2 2 2 2 2 2 2 2 2 2 2 2 2 2 2 2 2 2 2 2 2 2 2 2 2 2 2 2 2 2 2 2 2 2 2 2 2 2 2 2 2 2 2 2 3

69
1 0
1 1
4 2 25 34 48
6 3 7 18 24 33 35
2 4 25
5 1 5 20 33 48
4 4 6 18 28
4 7 12 36 47
3 8 37 42
4 9 32 35 36
4 2 10 27 35
3 4 11 43
5 13 20 25 36 40
5 2 14 26 36 37
3 15 46 51
2 17 48
3 1 11 18
3 19 36 41
2 20 25
2 21 51
2 12 22
4 23 37 46 47
3 2 20 24
1 25
1 26
3 14 27 43
2 4 28
6 25 29 31 34 39 53
3 20 30 44
3 31 35 43
1 32
1 33
1 34
1 35
5 4 26 34 36 40
2 4 37
5 0 12 25 27 38
1 39
1 40
4 10 23 31 41
3 2 33 42
3 26 43 48
1 44
3 1 2 45
4 20 26 36 46
2 26 48
4 2 32 36 49
3 33 34 50
4 2 36 51 52
1 52
10 3 5 6 17 35 37 42 45 51 53
5 20 26 33 47 54
5 20 26 33 47 55
5 20 26 33 47 56
5 20 26 33 47 57
5 20 26 33 47 58
5 20 26 33 47 59
5 20 26 33 47 60
5 20 26 33 47 61
4 16 40 52 62
4 16 40 52 63
4 16 40 52 64
4 16 40 52 65
3 12 16 66
3 12 16 67
9 9 33 39 42 43 44 47 51 68
3 7 16 68
11 5 12 13 17 22 29 32 43 46 49 68
1 68

2 0.5 0.5
2 0.454545 0.545455
16 0.555556 0.571429 0.6 0.833333 0.777778 0.285714 0.357143 0.642857 0.444444 0.428571 0.4 0.166667 0.222222 0.714286 0.642857 0.357143
64 0.166667 0.769231 0.588235 0.727273 0.666667 0.4 0.769231 0.615385 0.5 0.473684 0.833333 0.642857 0.25 0.818182 0.444444 0.2 0.692308 0.555556 0.5 0.444444 0.538462 0.272727 0.473684 0.4 0.4375 0.75 0.6 0.333333 0.473684 0.416667 0.529412 0.4375 0.833333 0.230769 0.411765 0.272727 0.333333 0.6 0.230769 0.384615 0.5 0.526316 0.166667 0.357143 0.75 0.181818 0.555556 0.8 0.307692 0.444444 0.5 0.555556 0.461538 0.727273 0.526316 0.6 0.5625 0.25 0.4 0.666667 0.526316 0.583333 0.470588 0.5625
4 0.666667 0.571429 0.333333 0.428571
32 0.470588 0.7 0.2 0.166667 0.444444 0.466667 0.526316 0.333333 0.529412 0.3 0.8 0.833333 0.555556 0.533333 0.473684 0.666667 0.466667 0.555556 0.588235 0.333333 0.666667 0.466667 0.5625 0.7 0.533333 0.444444 0.411765 0.666667 0.333333 0.533333 0.4375 0.3
16 0.666667 0.363636 0.555556 0.833333 0.333333 0.636364 0.444444 0.166667 0.4 0.692308 0.818182 0.692308 0.6 0.307692 0.181818 0.307692
16 0.526316 0.333333 0.5625 0.333333 0.571429 0.75 0.230769 0.6 0.473684 0.666667 0.4375 0.666667 0.428571 0.25 0.769231 0.4
8 0.473684 0.555556 0.411765 0.714286 0.526316 0.444444 0.588235 0.285714
16 0.666667 0.2 0.666667 0.714286 0.5 0.5 0.470588 0.533333 0.333333 0.8 0.333333 0.285714 0.5 0.5 0.529412 0.466667
16 0.411765 0.625 0.5 0.6 0.588235 0.375 0.5 0.4 0.769231 0.833333 0.692308 0.571429 0.230769 0.166667 0.307692 0.428571
8 0.529412 0.5 0.470588 0.5 0.538462 0.5 0.461538 0.5
32 0.444444 0.473684 0.583333 0.5 0.4 0.5 0.5 0.466667 0.5 0.545455 0.571429 0.454545 0.333333 0.777778 0.666667 0.222222 0.555556 0.526316 0.416667 0.5 0.6 0.5 0.5 0.533333 0.5 0.454545 0.428571 0.545455 0.666667 0.222222 0.333333 0.777778
32 0.533333 0.4 0.588235 0.363636 0.636364 0.4 0.5 0.714286 0.466667 0.6 0.411765 0.636364 0.363636 0.6 0.5 0.285714 0.666667 0.333333 0.470588 0.5 0.636364 0.428571 0.272727 0.357143 0.333333 0.666667 0.529412 0.5 0.363636 0.571429 0.727273 0.642857
8 0.8 0.5 0.333333 0.25 0.2 0.5 0.666667 0.75
4 0.470588 0.4 0.529412 0.6
8 0.666667 0.333333 0.5 0.5 0.444444 0.555556 0.416667 0.583333
8 0.285714 0.714286 0.5 0.5 0.714286 0.285714 0.5 0.5
4 0.454545 0.363636 0.545455 0.636364
4 0.461538 0.272727 0.538462 0.727273
4 0.5 0.5 0.625 0.375
16 0.285714 0.333333 0.307692 0.588235 0.461538 0.714286 0.3 0.588235 0.714286 0.666667 0.692308 0.411765 0.538462 0.285714 0.7 0.411765
8 0.285714 0.714286 0.4 0.6 0.625 0.375 0.727273 0.272727
2 0.588235 0.411765
2 0.375 0.625
8 0.692308 0.4375 0.307692 0.5625 0.529412 0.666667 0.470588 0.333333
4 0.5 0.5 0.571429 0.428571
64 0.333333 0.526316 0.818182 0.375 0.5 0.363636 0.5 0.3 0.625 0.473684 0.444444 0.533333 0.25 0.571429 0.5625 0.642857 0.666667 0.473684 0.181818 0.625 0.5 0.636364 0.5 0.7 0.375 0.526316 0.555556 0.466667 0.75 0.428571 0.4375 0.357143 0.666667 0.384615 0.363636 0.6 0.583333 0.529412 0.529412 0.545455 0.818182 0.625 0.428571 0.5625 0.333333 0.5 0.230769 0.230769 0.333333 0.615385 0.636364 0.4 0.416667 0.470588 0.470588 0.454545 0.181818 0.375 0.571429 0.4375 0.666667 0.5 0.769231 0.769231
8 0.8 0.444444 0.2 0.555556 0.6 0.666667 0.4 0.333333
8 0.357143 0.461538 0.272727 0.411765 0.642857 0.538462 0.727273 0.588235
2 0.7 0.3
2 0.428571 0.571429
2 0.727273 0.272727
2 0.166667 0.833333
32 0.333333 0.75 0.666667 0.25 0.333333 0.666667 0.666667 0.333333 0.8 0.571429 0.2 0.428571 0.545455 0.285714 0.454545 0.714286 0.428571 0.411765 0.571429 0.588235 0.6 0.583333 0.4 0.416667 0.333333 0.555556 0.666667 0.444444 0.375 0.461538 0.625 0.538462
4 0.461538 0.538462 0.25 0.75
32 0.833333 0.166667 0.25 0.75 0.444444 0.555556 0.666667 0.333333 0.5 0.5 0.5 0.5 0.636364 0.363636 0.384615 0.615385 0.526316 0.473684 0.5 0.5 0.222222 0.777778 0.411765 0.588235 0.428571 0.571429 0.5 0.5 0.526316 0.473684 0.583333 0.416667
2 0.526316 0.473684
2 0.375 0.625
16 0.230769 0.769231 0.466667 0.533333 0.454545 0.545455 0.25 0.75 0.571429 0.428571 0.384615 0.615385 0.777778 0.222222 0.571429 0.428571
8 0.307692 0.692308 0.333333 0.666667 0.470588 0.529412 0.333333 0.666667
8 0.727273 0.461538 0.272727 0.538462 0.777778 0.4 0.222222 0.6
2 0.5 0.5
8 0.666667 0.333333 0.529412 0.470588 0.3 0.7 0.473684 0.526316
16 0.833333 0.166667 0.454545 0.545455 0.727273 0.272727 0.588235 0.411765 0.625 0.375 0.25 0.75 0.4 0.6 0.5 0.5
4 0.625 0.375 0.583333 0.416667
16 0.357143 0.642857 0.166667 0.833333 0.473684 0.526316 0.5 0.5 0.363636 0.636364 0.777778 0.222222 0.538462 0.461538 0.470588 0.529412
8 0.5 0.5 0.333333 0.666667 0.625 0.375 0.692308 0.307692
16 0.666667 0.25 0.333333 0.75 0.5 0.3 0.5 0.7 0.625 0.357143 0.375 0.642857 0.526316 0.6 0.473684 0.4
2 0.714286 0.285714
1024 0.25 0.75 0.714286 0.285714 0.818182 0.181818 0.470588 0.529412 0.75 0.25 0.769231 0.230769 0.555556 0.444444 0.454545 0.545455 0.545455 0.454545 0.583333 0.416667 0.5 0.5 0.5 0.5 0.4 0.6 0.636364 0.363636 0.636364 0.363636 0.777778 0.222222 0.363636 0.636364 0.222222 0.777778 0.666667 0.333333 0.5625 0.4375 0.4375 0.5625 0.555556 0.444444 0.181818 0.818182 0.4 0.6 0.307692 0.692308 0.75 0.25 0.625 0.375 0.571429 0.428571 0.5 0.5 0.230769 0.769231 0.6 0.4 0.555556 0.444444 0.307692 0.692308 0.666667 0.333333 0.5 0.5 0.5 0.5 0.285714 0.714286 0.769231 0.230769 0.428571 0.571429 0.555556 0.444444 0.8 0.2 0.454545 0.545455 0.5 0.5 0.25 0.75 0.526316 0.473684 0.3 0.7 0.333333 0.666667 0.5 0.5 0.727273 0.272727 0.8 0.2 0.615385 0.384615 0.6 0.4 0.4 0.6 0.5 0.5 0.615385 0.384615 0.411765 0.588235 0.428571 0.571429 0.5 0.5 0.25 0.75 0.454545 0.545455 0.333333 0.666667 0.428571 0.571429 0.166667 0.833333 0.571429 0.428571 0.5 0.5 0.625 0.375 0.333333 0.666667 0.714286 0.285714 0.571429 0.428571 0.428571 0.571429 0.25 0.75 0.357143 0.642857 0.666667 0.333333 0.818182 0.181818 0.666667 0.333333 0.181818 0.818182 0.818182 0.181818 0.818182 0.181818 0.583333 0.416667 0.5625 0.4375 0.4375 0.5625 0.461538 0.538462 0.666667 0.333333 0.307692 0.692308 0.625 0.375 0.5 0.5 0.285714 0.714286 0.357143 0.642857 0.625 0.375 0.363636 0.636364 0.777778 0.222222 0.615385 0.384615 0.642857 0.357143 0.285714 0.714286 0.470588 0.529412 0.555556 0.444444 0.285714 0.714286 0.692308 0.307692 0.625 0.375 0.6 0.4 0.222222 0.777778 0.636364 0.363636 0.666667 0.333333 0.571429 0.428571 0.692308 0.307692 0.5 0.5 0.555556 0.444444 0.333333 0.666667 0.375 0.625 0.357143 0.642857 0.230769 0.769231 0.529412 0.470588 0.545455 0.454545 0.5 0.5 0.333333 0.666667 0.444444 0.555556 0.777778 0.222222 0.416667 0.583333 0.5 0.5 0.75 0.25 0.642857 0.357143 0.272727 0.727273 0.444444 0.555556 0.333333 0.666667 0.636364 0.363636 0.4 0.6 0.7 0.3 0.416667 0.583333 0.5 0.5 0.470588 0.529412 0.625 0.375 0.416667 0.583333 0.25 0.75 0.545455 0.454545 0.5 0.5 0.714286 0.285714 0.625 0.375 0.5625 0.4375 0.5 0.5 0.625 0.375 0.333333 0.666667 0.222222 0.777778 0.75 0.25 0.384615 0.615385 0.25 0.75 0.642857 0.357143 0.642857 0.357143 0.4 0.6 0.444444 0.555556 0.25 0.75 0.533333 0.466667 0.25 0.75 0.818182 0.181818 0.666667 0.333333 0.7 0.3 0.444444 0.555556 0.5 0.5 0.5 0.5 0.769231 0.230769 0.75 0.25 0.666667 0.333333 0.5 0.5 0.615385 0.384615 0.625 0.375 0.571429 0.428571 0.470588 0.529412 0.666667 0.333333 0.384615 0.615385 0.25 0.75 0.666667 0.333333 0.666667 0.333333 0.588235 0.411765 0.75 0.25 0.2 0.8 0.5 0.5 0.411765 0.588235 0.5 0.5 0.769231 0.230769 0.473684 0.526316 0.6 0.4 0.454545 0.545455 0.642857 0.357143 0.428571 0.571429 0.7 0.3 0.375 0.625 0.363636 0.636364 0.3 0.7 0.25 0.75 0.363636 0.636364 0.5625 0.4375 0.588235 0.411765 0.166667 0.833333 0.230769 0.769231 0.5 0.5 0.4375 0.5625 0.461538 0.538462 0.615385 0.384615 0.583333 0.416667 0.2 0.8 0.642857 0.357143 0.4 0.6 0.25 0.75 0.666667 0.333333 0.411765 0.588235 0.333333 0.666667 0.588235 0.411765 0.769231 0.230769 0.466667 0.533333 0.411765 0.588235 0.461538 0.538462 0.5625 0.4375 0.4 0.6 0.333333 0.666667 0.692308 0.307692 0.636364 0.363636 0.181818 0.818182 0.428571 0.571429 0.333333 0.666667 0.333333 0.666667 0.583333 0.416667 0.833333 0.166667 0.461538 0.538462 0.7 0.3 0.466667 0.533333 0.692308 0.307692 0.666667 0.333333 0.625 0.375 0.5 0.5 0.461538 0.538462 0.384615 0.615385 0.384615 0.615385 0.636364 0.363636 0.692308 0.307692 0.636364 0.363636 0.222222 0.777778 0.5 0.5 0.625 0.375 0.285714 0.714286 0.8 0.2 0.454545 0.545455 0.466667 0.533333 0.75 0.25 0.7 0.3 0.666667 0.333333 0.588235 0.411765 0.5 0.5 0.428571 0.571429 0.166667 0.833333 0.5 0.5 0.615385 0.384615 0.428571 0.571429 0.166667 0.833333 0.166667 0.833333 0.333333 0.666667 0.666667 0.333333 0.333333 0.666667 0.272727 0.727273 0.5 0.5 0.5 0.5 0.4 0.6 0.3 0.7 0.714286 0.285714 0.583333 0.416667 0.533333 0.466667 0.5625 0.4375 0.428571 0.571429 0.555556 0.444444 0.666667 0.333333 0.636364 0.363636 0.8 0.2 0.25 0.75 0.4 0.6 0.5 0.5 0.727273 0.272727 0.416667 0.583333 0.473684 0.526316 0.727273 0.272727 0.25 0.75 0.25 0.75 0.714286 0.285714 0.307692 0.692308 0.428571 0.571429 0.333333 0.666667 0.714286 0.285714 0.714286 0.285714 0.444444 0.555556 0.454545 0.545455 0.470588 0.529412 0.636364 0.363636 0.181818 0.818182 0.5 0.5 0.625 0.375 0.466667 0.533333 0.230769 0.769231 0.5 0.5 0.625 0.375 0.5 0.5 0.230769 0.769231 0.307692 0.692308 0.6 0.4 0.384615 0.615385 0.571429 0.428571 0.6 0.4 0.444444 0.555556 0.473684 0.526316 0.25 0.75 0.555556 0.444444 0.727273 0.272727 0.5 0.5 0.714286 0.285714 0.555556 0.444444 0.333333 0.666667 0.333333 0.666667 0.4 0.6 0.5 0.5 0.5 0.5 0.384615 0.615385 0.375 0.625 0.5 0.5 0.363636 0.636364 0.5 0.5 0.25 0.75 0.7 0.3 0.166667 0.833333 0.25 0.75 0.555556 0.444444 0.333333 0.666667 0.6 0.4 0.666667 0.333333 0.333333 0.666667 0.555556 0.444444 0.454545 0.545455 0.428571 0.571429 0.2 0.8 0.230769 0.769231 0.25 0.75 0.181818 0.818182 0.285714 0.714286 0.583333 0.416667 0.363636 0.636364 0.529412 0.470588 0.166667 0.833333 0.714286 0.285714 0.545455 0.454545 0.416667 0.583333 0.5 0.5 0.473684 0.526316 0.615385 0.384615 0.7 0.3 0.411765 0.588235 0.428571 0.571429 0.4 0.6 0.75 0.25 0.333333 0.666667 0.466667 0.533333 0.6 0.4 0.333333 0.666667 0.5 0.5 0.666667 0.333333 0.333333 0.666667 0.285714 0.714286 0.714286 0.285714 0.272727 0.727273 0.181818 0.818182 0.3 0.7 0.642857 0.357143 0.333333 0.666667 0.5 0.5 0.75 0.25 0.5 0.5 0.625 0.375 0.428571 0.571429 0.625 0.375 0.5 0.5 0.727273 0.272727 0.166667 0.833333 0.5 0.5 0.3 0.7 0.375 0.625 0.6 0.4 0.777778 0.222222 0.25 0.75 0.5 0.5 0.4 0.6 0.181818 0.818182 0.75 0.25 0.818182 0.181818 0.25 0.75 0.625 0.375 0.333333 0.666667 0.727273 0.272727 0.444444 0.555556 0.666667 0.333333 0.333333 0.666667 0.8 0.2 0.333333 0.666667 0.5625 0.4375 0.25 0.75 0.538462 0.461538 0.6 0.4 0.357143 0.642857 0.666667 0.333333 0.833333 0.166667 0.444444 0.555556 0.285714 0.714286 0.769231 0.230769 0.181818 0.818182 0.285714 0.714286 0.166667 0.833333 0.454545 0.545455 0.538462 0.461538 0.8 0.2 0.5 0.5 0.642857 0.357143 0.181818 0.818182 0.714286 0.285714 0.5 0.5 0.357143 0.642857 0.4375 0.5625 0.461538 0.538462 0.5625 0.4375 0.428571 0.571429 0.571429 0.428571 0.357143 0.642857 0.230769 0.769231 0.5625 0.4375 0.4 0.6 0.5 0.5 0.727273 0.272727 0.5 0.5 0.75 0.25 0.5 0.5 0.571429 0.428571 0.5 0.5 0.727273 0.272727 0.428571 0.571429 0.818182 0.181818 0.666667 0.333333 0.727273 0.272727 0.75 0.25 0.571429 0.428571 0.5 0.5 0.25 0.75 0.5 0.5 0.777778 0.222222 0.727273 0.272727 0.526316 0.473684 0.666667 0.333333 0.375 0.625 0.272727 0.727273 0.411765 0.588235 0.75 0.25 0.5 0.5 0.333333 0.666667 0.461538 0.538462 0.7 0.3 0.5 0.5 0.333333 0.666667 0.6 0.4 0.4 0.6 0.555556 0.444444 0.666667 0.333333 0.454545 0.545455 0.6 0.4 0.2 0.8 0.470588 0.529412 0.8 0.2 0.615385 0.384615 0.555556 0.444444 0.466667 0.533333 0.3 0.7 0.428571 0.571429 0.5 0.5 0.454545 0.545455 0.470588 0.529412 0.357143 0.642857 0.529412 0.470588 0.4375 0.5625 0.588235 0.411765 0.428571 0.571429 0.625 0.375 0.428571 0.571429 0.666667 0.333333 0.583333 0.416667 0.545455 0.454545 0.384615 0.615385 0.181818 0.818182 0.5 0.5 0.444444 0.555556 0.714286 0.285714 0.428571 0.571429 0.75 0.25 0.692308 0.307692 0.6 0.4 0.666667 0.333333 0.3 0.7 0.470588 0.529412 0.5 0.5 0.4 0.6 0.5 0.5 0.777778 0.222222 0.714286 0.285714 0.411765 0.588235 0.75 0.25 0.625 0.375 0.416667 0.583333 0.454545 0.545455 0.454545 0.545455 0.714286 0.285714 0.5 0.5 0.571429 0.428571 0.222222 0.777778
32 1.0 0.0 0.0 1.0 1.0 1.0 1.0 1.0 1.0 1.0 1.0 1.0 1.0 1.0 1.0 1.0 1.0 1.0 1.0 1.0 1.0 1.0 1.0 1.0 1.0 1.0 1.0 1.0 1.0 1.0 1.0 1.0
32 1.0 1.0 1.0 1.0 1.0 1.0 1.0 1.0 1.0 1.0 1.0 1.0 1.0 1.0 1.0 1.0 1.0 0.0 0.0 1.0 1.0 1.0 1.0 1.0 1.0 1.0 1.0 1.0 1.0 1.0 1.0 1.0
32 1.0 1.0 1.0 1.0 1.0 0.0 0.0 1.0 1.0 1.0 1.0 1.0 1.0 1.0 1.0 1.0 1.0 1.0 1.0 1.0 1.0 1.0 1.0 1.0 1.0 1.0 1.0 1.0 1.0 1.0 1.0 1.0
32 1.0 1.0 1.0 1.0 1.0 1.0 1.0 1.0 1.0 1.0 1.0 1.0 1.0 1.0 1.0 1.0 1.0 1.0 1.0 1.0 1.0 0.0 0.0 1.0 1.0 1.0 1.0 1.0 1.0 1.0 1.0 1.0
32 1.0 1.0 1.0 1.0 1.0 1.0 1.0 1.0 1.0 0.0 0.0 1.0 1.0 1.0 1.0 1.0 1.0 1.0 1.0 1.0 1.0 1.0 1.0 1.0 1.0 1.0 1.0 1.0 1.0 1.0 1.0 1.0
32 1.0 1.0 1.0 1.0 1.0 1.0 1.0 1.0 1.0 1.0 1.0 1.0 1.0 1.0 1.0 1.0 1.0 1.0 1.0 1.0 1.0 1.0 1.0 1.0 1.0 0.0 0.0 1.0 1.0 1.0 1.0 1.0
32 1.0 1.0 1.0 1.0 1.0 1.0 1.0 1.0 1.0 1.0 1.0 1.0 1.0 0.0 0.0 1.0 1.0 1.0 1.0 1.0 1.0 1.0 1.0 1.0 1.0 1.0 1.0 1.0 1.0 1.0 1.0 1.0
32 1.0 1.0 1.0 1.0 1.0 1.0 1.0 1.0 1.0 1.0 1.0 1.0 1.0 1.0 1.0 1.0 1.0 1.0 1.0 1.0 1.0 1.0 1.0 1.0 1.0 1.0 1.0 1.0 1.0 0.0 0.0 1.0
16 1.0 0.0 1.0 1.0 1.0 1.0 1.0 1.0 0.0 1.0 1.0 1.0 1.0 1.0 1.0 1.0
16 1.0 1.0 1.0 0.0 1.0 1.0 1.0 1.0 1.0 1.0 0.0 1.0 1.0 1.0 1.0 1.0
16 1.0 1.0 1.0 1.0 1.0 0.0 1.0 1.0 1.0 1.0 1.0 1.0 0.0 1.0 1.0 1.0
16 1.0 1.0 1.0 1.0 1.0 1.0 1.0 0.0 1.0 1.0 1.0 1.0 1.0 1.0 0.0 1.0
8 1.0 0.0 1.0 1.0 0.0 1.0 1.0 1.0
8 1.0 1.0 1.0 0.0 1.0 1.0 0.0 1.0
768 8.0 1.0 1.0 9.0 1.0 1.0 3.0 1.0 1.0 1.0 1.0 1.0 9.0 1.0 1.0 1.0 1.0 1.0 6.0 1.0 1.0 0.0 1.0 1.0 0.0 1.0 1.0 9.0 1.0 1.0 1.0 1.0 1.0 5.0 1.0 1.0 6.0 1.0 1.0 7.0 1.0 1.0 9.0 1.0 1.0 5.0 1.0 1.0 1.0 1.0 1.0 6.0 1.0 1.0 6.0 1.0 1.0 8.0 1.0 1.0 3.0 1.0 1.0 0.0 1.0 1.0 3.0 1.0 1.0 0.0 1.0 1.0 9.0 1.0 1.0 3.0 1.0 1.0 8.0 1.0 1.0 1.0 1.0 1.0 6.0 1.0 1.0 4.0 1.0 1.0 8.0 1.0 1.0 5.0 1.0 1.0 0.0 1.0 1.0 2.0 1.0 1.0 9.0 1.0 1.0 7.0 1.0 1.0 1.0 1.0 1.0 7.0 1.0 1.0 6.0 1.0 1.0 9.0 1.0 1.0 4.0 1.0 1.0 8.0 1.0 1.0 0.0 1.0 1.0 8.0 1.0 1.0 2.0 1.0 1.0 6.0 1.0 1.0 2.0 1.0 1.0 3.0 1.0 1.0 1.0 1.0 1.0 6.0 1.0 1.0 0.0 1.0 1.0 6.0 1.0 1.0 8.0 1.0 1.0 7.0 1.0 1.0 2.0 1.0 1.0 1.0 1.0 1.0 3.0 1.0 1.0 1.0 1.0 1.0 2.0 1.0 1.0 8.0 1.0 1.0 2.0 1.0 1.0 3.0 1.0 1.0 3.0 1.0 1.0 1.0 1.0 1.0 7.0 1.0 1.0 7.0 1.0 1.0 7.0 1.0 1.0 5.0 1.0 1.0 7.0 1.0 1.0 0.0 1.0 1.0 9.0 1.0 1.0 9.0 1.0 1.0 8.0 1.0 1.0 7.0 1.0 1.0 9.0 1.0 1.0 0.0 1.0 1.0 4.0 1.0 1.0 1.0 1.0 1.0 7.0 1.0 1.0 1.0 1.0 1.0 0.0 1.0 1.0 0.0 1.0 1.0 6.0 1.0 1.0 6.0 1.0 1.0 8.0 1.0 1.0 8.0 1.0 1.0 7.0 1.0 1.0 9.0 1.0 1.0 6.0 1.0 1.0 3.0 1.0 1.0 4.0 1.0 1.0 1.0 1.0 1.0 9.0 1.0 1.0 8.0 1.0 1.0 9.0 1.0 1.0 2.0 1.0 1.0 7.0 1.0 1.0 6.0 1.0 1.0 6.0 1.0 1.0 7.0 1.0 1.0 4.0 1.0 1.0 7.0 1.0 1.0 9.0 1.0 1.0 4.0 1.0 1.0 6.0 1.0 1.0 6.0 1.0 1.0 8.0 1.0 1.0 2.0 1.0 1.0 1.0 1.0 1.0 7.0 1.0 1.0 3.0 1.0 1.0 3.0 1.0 1.0 7.0 1.0 1.0 5.0 1.0 1.0 7.0 1.0 1.0 4.0 1.0 1.0 4.0 1.0 1.0 3.0 1.0 1.0 8.0 1.0 1.0 2.0 1.0 1.0 5.0 1.0 1.0 1.0 1.0 1.0 6.0 1.0 1.0 6.0 1.0 1.0 6.0 1.0 1.0 3.0 1.0 1.0 6.0 1.0 1.0 5.0 1.0 1.0 1.0 1.0 1.0 0.0 1.0 1.0 8.0 1.0 1.0 1.0 1.0 1.0 7.0 1.0 1.0 6.0 1.0 1.0 2.0 1.0 1.0 3.0 1.0 1.0 9.0 1.0 1.0 8.0 1.0 1.0 7.0 1.0 1.0 7.0 1.0 1.0 7.0 1.0 1.0 0.0 1.0 1.0 5.0 1.0 1.0 7.0 1.0 1.0 3.0 1.0 1.0 1.0 1.0 1.0 3.0 1.0 1.0 6.0 1.0 1.0 0.0 1.0 1.0 1.0 1.0 1.0 8.0 1.0 1.0 2.0 1.0 1.0 1.0 1.0 1.0 3.0 1.0 1.0 0.0 1.0 1.0 6.0 1.0 1.0 1.0 1.0 1.0 2.0 1.0 1.0 2.0 1.0 1.0 1.0 1.0 1.0 8.0 1.0 1.0 9.0 1.0 1.0 2.0 1.0 1.0 9.0 1.0 1.0 3.0 1.0 1.0 1.0 1.0 1.0 6.0 1.0 1.0 6.0 1.0 1.0 9.0 1.0 1.0 6.0 1.0 1.0 2.0 1.0 1.0 7.0 1.0 1.0 0.0 1.0 1.0 7.0 1.0 1.0 3.0 1.0 1.0 8.0 1.0 1.0 6.0 1.0 1.0 1.0 1.0 1.0 1.0 1.0 1.0 2.0 1.0 1.0 1.0 1.0 1.0 1.0 1.0 1.0 6.0 1.0 1.0 9.0 1.0 1.0 4.0 1.0 1.0 5.0 1.0 1.0 5.0 1.0 1.0 7.0 1.0 1.0 8.0 1.0 1.0 7.0 1.0 1.0 9.0 1.0 1.0 7.0 1.0 1.0 2.0 1.0 1.0 0.0 1.0 1.0 7.0 1.0 1.0 1.0 1.0 1.0 3.0 1.0 1.0 8.0 1.0 1.0 9.0 1.0 1.0 8.0 1.0 1.0 3.0 1.0 1.0 6.0 1.0 1.0 9.0 1.0 1.0 4.0 1.0 1.0 9.0 1.0 1.0 0.0 1.0 1.0 7.0 1.0 1.0 3.0 1.0 1.0 6.0 1.0 1.0 4.0 1.0 1.0 2.0 1.0 1.0 9.0 1.0 1.0 6.0 1.0 1.0 9.0 1.0 1.0 1.0 1.0 1.0 6.0 1.0 1.0 1.0 1.0 1.0 5.0 1.0 1.0 2.0 1.0 1.0 8.0 1.0 1.0 0.0 1.0 1.0 3.0 1.0 1.0 6.0 1.0 1.0 6.0 1.0 1.0 9.0 1.0 1.0 9.0 1.0 1.0 9.0 1.0 1.0 0.0 1.0 1.0 8.0 1.0 1.0 6.0 1.0 1.0 2.0 1.0 1.0 4.0 1.0 1.0 0.0 1.0 1.0 7.0 1.0 1.0 9.0 1.0 1.0 6.0 1.0 1.0 4.0 1.0 1.0 6.0 1.0 1.0 9.0 1.0 1.0 7.0 1.0 1.0 9.0 1.0 1.0 6.0 1.0 1.0 2.0 1.0 1.0 2.0 1.0 1.0 2.0 1.0 1.0 1.0 1.0 1.0 0.0 1.0 1.0 7.0 1.0 1.0 9.0 1.0 1.0 8.0 1.0 1.0 6.0 1.0 1.0 7.0 1.0 1.0 9.0 1.0 1.0 8.0 1.0 1.0 6.0 1.0 1.0 3.0 1.0 1.0
12 1.0 6.0 1.0 1.0 5.0 1.0 1.0 9.0 1.0 1.0 2.0 1.0
3072 1.0 1.0 0.0 1.0 1.0 8.0 1.0 1.0 9.0 1.0 1.0 3.0 1.0 1.0 6.0 1.0 1.0 2.0 1.0 1.0 0.0 1.0 1.0 2.0 1.0 1.0 8.0 1.0 1.0 4.0 1.0 1.0 7.0 1.0 1.0 4.0 1.0 1.0 1.0 1.0 1.0 0.0 1.0 1.0 6.0 1.0 1.0 0.0 1.0 1.0 2.0 1.0 1.0 9.0 1.0 1.0 8.0 1.0 1.0 5.0 1.0 1.0 6.0 1.0 1.0 4.0 1.0 1.0 2.0 1.0 1.0 1.0 1.0 1.0 9.0 1.0 1.0 9.0 1.0 1.0 4.0 1.0 1.0 7.0 1.0 1.0 0.0 1.0 1.0 8.0 1.0 1.0 1.0 1.0 1.0 3.0 1.0 1.0 1.0 1.0 1.0 5.0 1.0 1.0 5.0 1.0 1.0 7.0 1.0 1.0 7.0 1.0 1.0 1.0 1.0 1.0 5.0 1.0 1.0 5.0 1.0 1.0 9.0 1.0 1.0 3.0 1.0 1.0 0.0 1.0 1.0 4.0 1.0 1.0 7.0 1.0 1.0 4.0 1.0 1.0 8.0 1.0 1.0 2.0 1.0 1.0 7.0 1.0 1.0 6.0 1.0 1.0 9.0 1.0 1.0 8.0 1.0 1.0 9.0 1.0 1.0 9.0 1.0 1.0 1.0 1.0 1.0 7.0 1.0 1.0 4.0 1.0 1.0 3.0 1.0 1.0 6.0 1.0 1.0 7.0 1.0 1.0 0.0 1.0 1.0 1.0 1.0 1.0 2.0 1.0 1.0 9.0 1.0 1.0 2.0 1.0 1.0 8.0 1.0 1.0 6.0 1.0 1.0 9.0 1.0 1.0 7.0 1.0 1.0 1.0 1.0 1.0 9.0 1.0 1.0 3.0 1.0 1.0 9.0 1.0 1.0 9.0 1.0 1.0 8.0 1.0 1.0 6.0 1.0 1.0 2.0 1.0 1.0 1.0 1.0 1.0 7.0 1.0 1.0 1.0 1.0 1.0 6.0 1.0 1.0 0.0 1.0 1.0 9.0 1.0 1.0 6.0 1.0 1.0 6.0 1.0 1.0 7.0 1.0 1.0 0.0 1.0 1.0 8.0 1.0 1.0 1.0 1.0 1.0 3.0 1.0 1.0 5.0 1.0 1.0 7.0 1.0 1.0 6.0 1.0 1.0 1.0 1.0 1.0 0.0 1.0 1.0 4.0 1.0 1.0 8.0 1.0 1.0 5.0 1.0 1.0 8.0 1.0 1.0 7.0 1.0 1.0 1.0 1.0 1.0 5.0 1.0 1.0 2.0 1.0 1.0 1.0 1.0 1.0 9.0 1.0 1.0 5.0 1.0 1.0 1.0 1.0 1.0 3.0 1.0 1.0 8.0 1.0 1.0 3.0 1.0 1.0 9.0 1.0 1.0 1.0 1.0 1.0 3.0 1.0 1.0 3.0 1.0 1.0 0.0 1.0 1.0 7.0 1.0 1.0 6.0 1.0 1.0 7.0 1.0 1.0 5.0 1.0 1.0 8.0 1.0 1.0 7.0 1.0 1.0 7.0 1.0 1.0 1.0 1.0 1.0 7.0 1.0 1.0 3.0 1.0 1.0 3.0 1.0 1.0 9.0 1.0 1.0 8.0 1.0 1.0 6.0 1.0 1.0 1.0 1.0 1.0 1.0 1.0 1.0 4.0 1.0 1.0 6.0 1.0 1.0 9.0 1.0 1.0 1.0 1.0 1.0 2.0 1.0 1.0 1.0 1.0 1.0 9.0 1.0 1.0 1.0 1.0 1.0 1.0 1.0 1.0 6.0 1.0 1.0 9.0 1.0 1.0 8.0 1.0 1.0 9.0 1.0 1.0 0.0 1.0 1.0 2.0 1.0 1.0 7.0 1.0 1.0 1.0 1.0 1.0 4.0 1.0 1.0 4.0 1.0 1.0 8.0 1.0 1.0 5.0 1.0 1.0 9.0 1.0 1.0 9.0 1.0 1.0 8.0 1.0 1.0 6.0 1.0 1.0 4.0 1.0 1.0 1.0 1.0 1.0 8.0 1.0 1.0 6.0 1.0 1.0 2.0 1.0 1.0 1.0 1.0 1.0 8.0 1.0 1.0 3.0 1.0 1.0 9.0 1.0 1.0 1.0 1.0 1.0 3.0 1.0 1.0 0.0 1.0 1.0 2.0 1.0 1.0 9.0 1.0 1.0 9.0 1.0 1.0 6.0 1.0 1.0 4.0 1.0 1.0 8.0 1.0 1.0 2.0 1.0 1.0 8.0 1.0 1.0 0.0 1.0 1.0 9.0 1.0 1.0 5.0 1.0 1.0 1.0 1.0 1.0 4.0 1.0 1.0 0.0 1.0 1.0 0.0 1.0 1.0 4.0 1.0 1.0 7.0 1.0 1.0 4.0 1.0 1.0 5.0 1.0 1.0 6.0 1.0 1.0 4.0 1.0 1.0 7.0 1.0 1.0 8.0 1.0 1.0 6.0 1.0 1.0 8.0 1.0 1.0 1.0 1.0 1.0 1.0 1.0 1.0 0.0 1.0 1.0 8.0 1.0 1.0 1.0 1.0 1.0 3.0 1.0 1.0 5.0 1.0 1.0 4.0 1.0 1.0 9.0 1.0 1.0 8.0 1.0 1.0 2.0 1.0 1.0 3.0 1.0 1.0 1.0 1.0 1.0 2.0 1.0 1.0 6.0 1.0 1.0 9.0 1.0 1.0 5.0 1.0 1.0 2.0 1.0 1.0 9.0 1.0 1.0 2.0 1.0 1.0 3.0 1.0 1.0 9.0 1.0 1.0 8.0 1.0 1.0 0.0 1.0 1.0 0.0 1.0 1.0 8.0 1.0 1.0 5.0 1.0 1.0 6.0 1.0 1.0 3.0 1.0 1.0 7.0 1.0 1.0 6.0 1.0 1.0 0.0 1.0 1.0 6.0 1.0 1.0 9.0 1.0 1.0 2.0 1.0 1.0 0.0 1.0 1.0 7.0 1.0 1.0 1.0 1.0 1.0 1.0 1.0 1.0 5.0 1.0 1.0 7.0 1.0 1.0 9.0 1.0 1.0 7.0 1.0 1.0 9.0 1.0 1.0 0.0 1.0 1.0 8.0 1.0 1.0 8.0 1.0 1.0 3.0 1.0 1.0 8.0 1.0 1.0 8.0 1.0 1.0 8.0 1.0 1.0 8.0 1.0 1.0 5.0 1.0 1.0 0.0 1.0 1.0 2.0 1.0 1.0 4.0 1.0 1.0 5.0 1.0 1.0 5.0 1.0 1.0 0.0 1.0 1.0 0.0 1.0 1.0 8.0 1.0 1.0 6.0 1.0 1.0 1.0 1.0 1.0 3.0 1.0 1.0 0.0 1.0 1.0 4.0 1.0 1.0 7.0 1.0 1.0 3.0 1.0 1.0 9.0 1.0 1.0 3.0 1.0 1.0 0.0 1.0 1.0 3.0 1.0 1.0 9.0 1.0 1.0 1.0 1.0 1.0 1.0 1.0 1.0 8.0 1.0 1.0 4.0 1.0 1.0 3.0 1.0 1.0 3.0 1.0 1.0 4.0 1.0 1.0 7.0 1.0 1.0 7.0 1.0 1.0 6.0 1.0 1.0 2.0 1.0 1.0 2.0 1.0 1.0 4.0 1.0 1.0 9.0 1.0 1.0 1.0 1.0 1.0 4.0 1.0 1.0 8.0 1.0 1.0 2.0 1.0 1.0 4.0 1.0 1.0 7.0 1.0 1.0 9.0 1.0 1.0 0.0 1.0 1.0 8.0 1.0 1.0 3.0 1.0 1.0 5.0 1.0 1.0 9.0 1.0 1.0 9.0 1.0 1.0 0.0 1.0 1.0 2.0 1.0 1.0 4.0 1.0 1.0 1.0 1.0 1.0 8.0 1.0 1.0 2.0 1.0 1.0 2.0 1.0 1.0 8.0 1.0 1.0 0.0 1.0 1.0 7.0 1.0 1.0 5.0 1.0 1.0 2.0 1.0 1.0 0.0 1.0 1.0 5.0 1.0 1.0 9.0 1.0 1.0 7.0 1.0 1.0 5.0 1.0 1.0 6.0 1.0 1.0 9.0 1.0 1.0 1.0 1.0 1.0 5.0 1.0 1.0 8.0 1.0 1.0 4.0 1.0 1.0 1.0 1.0 1.0 2.0 1.0 1.0 7.0 1.0 1.0 6.0 1.0 1.0 5.0 1.0 1.0 4.0 1.0 1.0 4.0 1.0 1.0 7.0 1.0 1.0 0.0 1.0 1.0 2.0 1.0 1.0 0.0 1.0 1.0 6.0 1.0 1.0 3.0 1.0 1.0 0.0 1.0 1.0 7.0 1.0 1.0 4.0 1.0 1.0 5.0 1.0 1.0 8.0 1.0 1.0 1.0 1.0 1.0 8.0 1.0 1.0 1.0 1.0 1.0 5.0 1.0 1.0 7.0 1.0 1.0 4.0 1.0 1.0 9.0 1.0 1.0 8.0 1.0 1.0 5.0 1.0 1.0 3.0 1.0 1.0 3.0 1.0 1.0 7.0 1.0 1.0 6.0 1.0 1.0 2.0 1.0 1.0 7.0 1.0 1.0 9.0 1.0 1.0 6.0 1.0 1.0 6.0 1.0 1.0 4.0 1.0 1.0 7.0 1.0 1.0 3.0 1.0 1.0 1.0 1.0 1.0 0.0 1.0 1.0 9.0 1.0 1.0 0.0 1.0 1.0 5.0 1.0 1.0 3.0 1.0 1.0 3.0 1.0 1.0 9.0 1.0 1.0 1.0 1.0 1.0 8.0 1.0 1.0 6.0 1.0 1.0 0.0 1.0 1.0 5.0 1.0 1.0 3.0 1.0 1.0 7.0 1.0 1.0 6.0 1.0 1.0 9.0 1.0 1.0 1.0 1.0 1.0 1.0 1.0 1.0 6.0 1.0 1.0 0.0 1.0 1.0 7.0 1.0 1.0 4.0 1.0 1.0 3.0 1.0 1.0 3.0 1.0 1.0 9.0 1.0 1.0 5.0 1.0 1.0 6.0 1.0 1.0 2.0 1.0 1.0 7.0 1.0 1.0 5.0 1.0 1.0 6.0 1.0 1.0 1.0 1.0 1.0 1.0 1.0 1.0 3.0 1.0 1.0 7.0 1.0 1.0 7.0 1.0 1.0 7.0 1.0 1.0 5.0 1.0 1.0 1.0 1.0 1.0 1.0 1.0 1.0 0.0 1.0 1.0 1.0 1.0 1.0 2.0 1.0 1.0 0.0 1.0 1.0 4.0 1.0 1.0 6.0 1.0 1.0 0.0 1.0 1.0 6.0 1.0 1.0 2.0 1.0 1.0 8.0 1.0 1.0 2.0 1.0 1.0 7.0 1.0 1.0 1.0 1.0 1.0 7.0 1.0 1.0 9.0 1.0 1.0 2.0 1.0 1.0 7.0 1.0 1.0 6.0 1.0 1.0 5.0 1.0 1.0 4.0 1.0 1.0 4.0 1.0 1.0 9.0 1.0 1.0 6.0 1.0 1.0 9.0 1.0 1.0 3.0 1.0 1.0 4.0 1.0 1.0 9.0 1.0 1.0 3.0 1.0 1.0 7.0 1.0 1.0 8.0 1.0 1.0 0.0 1.0 1.0 2.0 1.0 1.0 4.0 1.0 1.0 0.0 1.0 1.0 1.0 1.0 1.0 6.0 1.0 1.0 4.0 1.0 1.0 6.0 1.0 1.0 4.0 1.0 1.0 0.0 1.0 1.0 0.0 1.0 1.0 5.0 1.0 1.0 6.0 1.0 1.0 6.0 1.0 1.0 1.0 1.0 1.0 7.0 1.0 1.0 3.0 1.0 1.0 4.0 1.0 1.0 4.0 1.0 1.0 6.0 1.0 1.0 9.0 1.0 1.0 2.0 1.0 1.0 6.0 1.0 1.0 6.0 1.0 1.0 6.0 1.0 1.0 2.0 1.0 1.0 5.0 1.0 1.0 3.0 1.0 1.0 8.0 1.0 1.0 6.0 1.0 1.0 2.0 1.0 1.0 8.0 1.0 1.0 5.0 1.0 1.0 3.0 1.0 1.0 7.0 1.0 1.0 8.0 1.0 1.0 6.0 1.0 1.0 1.0 1.0 1.0 7.0 1.0 1.0 5.0 1.0 1.0 1.0 1.0 1.0 6.0 1.0 1.0 0.0 1.0 1.0 9.0 1.0 1.0 7.0 1.0 1.0 0.0 1.0 1.0 3.0 1.0 1.0 1.0 1.0 1.0 6.0 1.0 1.0 5.0 1.0 1.0 5.0 1.0 1.0 3.0 1.0 1.0 9.0 1.0 1.0 7.0 1.0 1.0 2.0 1.0 1.0 0.0 1.0 1.0 3.0 1.0 1.0 7.0 1.0 1.0 2.0 1.0 1.0 9.0 1.0 1.0 2.0 1.0 1.0 6.0 1.0 1.0 4.0 1.0 1.0 6.0 1.0 1.0 0.0 1.0 1.0 9.0 1.0 1.0 3.0 1.0 1.0 7.0 1.0 1.0 8.0 1.0 1.0 0.0 1.0 1.0 8.0 1.0 1.0 6.0 1.0 1.0 2.0 1.0 1.0 6.0 1.0 1.0 4.0 1.0 1.0 9.0 1.0 1.0 3.0 1.0 1.0 6.0 1.0 1.0 4.0 1.0 1.0 2.0 1.0 1.0 4.0 1.0 1.0 8.0 1.0 1.0 6.0 1.0 1.0 5.0 1.0 1.0 9.0 1.0 1.0 2.0 1.0 1.0 5.0 1.0 1.0 5.0 1.0 1.0 9.0 1.0 1.0 7.0 1.0 1.0 0.0 1.0 1.0 4.0 1.0 1.0 8.0 1.0 1.0 3.0 1.0 1.0 0.0 1.0 1.0 1.0 1.0 1.0 1.0 1.0 1.0 0.0 1.0 1.0 0.0 1.0 1.0 3.0 1.0 1.0 6.0 1.0 1.0 0.0 1.0 1.0 8.0 1.0 1.0 3.0 1.0 1.0 5.0 1.0 1.0 5.0 1.0 1.0 9.0 1.0 1.0 6.0 1.0 1.0 9.0 1.0 1.0 6.0 1.0 1.0 8.0 1.0 1.0 1.0 1.0 1.0 4.0 1.0 1.0 5.0 1.0 1.0 9.0 1.0 1.0 1.0 1.0 1.0 0.0 1.0 1.0 9.0 1.0 1.0 1.0 1.0 1.0 6.0 1.0 1.0 0.0 1.0 1.0 5.0 1.0 1.0 0.0 1.0 1.0 6.0 1.0 1.0 8.0 1.0 1.0 5.0 1.0 1.0 8.0 1.0 1.0 5.0 1.0 1.0 3.0 1.0 1.0 1.0 1.0 1.0 7.0 1.0 1.0 7.0 1.0 1.0 8.0 1.0 1.0 8.0 1.0 1.0 0.0 1.0 1.0 8.0 1.0 1.0 4.0 1.0 1.0 5.0 1.0 1.0 5.0 1.0 1.0 2.0 1.0 1.0 6.0 1.0 1.0 8.0 1.0 1.0 0.0 1.0 1.0 6.0 1.0 1.0 2.0 1.0 1.0 1.0 1.0 1.0 9.0 1.0 1.0 1.0 1.0 1.0 0.0 1.0 1.0 8.0 1.0 1.0 6.0 1.0 1.0 5.0 1.0 1.0 4.0 1.0 1.0 1.0 1.0 1.0 0.0 1.0 1.0 6.0 1.0 1.0 9.0 1.0 1.0 9.0 1.0 1.0 1.0 1.0 1.0 9.0 1.0 1.0 0.0 1.0 1.0 8.0 1.0 1.0 8.0 1.0 1.0 0.0 1.0 1.0 5.0 1.0 1.0 4.0 1.0 1.0 1.0 1.0 1.0 8.0 1.0 1.0 6.0 1.0 1.0 7.0 1.0 1.0 5.0 1.0 1.0 5.0 1.0 1.0 1.0 1.0 1.0 0.0 1.0 1.0 5.0 1.0 1.0 5.0 1.0 1.0 7.0 1.0 1.0 2.0 1.0 1.0 8.0 1.0 1.0 3.0 1.0 1.0 3.0 1.0 1.0 3.0 1.0 1.0 7.0 1.0 1.0 8.0 1.0 1.0 5.0 1.0 1.0 1.0 1.0 1.0 7.0 1.0 1.0 6.0 1.0 1.0 1.0 1.0 1.0 9.0 1.0 1.0 7.0 1.0 1.0 6.0 1.0 1.0 0.0 1.0 1.0 1.0 1.0 1.0 0.0 1.0 1.0 5.0 1.0 1.0 3.0 1.0 1.0 5.0 1.0 1.0 0.0 1.0 1.0 5.0 1.0 1.0 6.0 1.0 1.0 5.0 1.0 1.0 8.0 1.0 1.0 4.0 1.0 1.0 9.0 1.0 1.0 5.0 1.0 1.0 7.0 1.0 1.0 9.0 1.0 1.0 2.0 1.0 1.0 9.0 1.0 1.0 3.0 1.0 1.0 5.0 1.0 1.0 1.0 1.0 1.0 7.0 1.0 1.0 1.0 1.0 1.0 1.0 1.0 1.0 2.0 1.0 1.0 4.0 1.0 1.0 3.0 1.0 1.0 2.0 1.0 1.0 7.0 1.0 1.0 7.0 1.0 1.0 7.0 1.0 1.0 2.0 1.0 1.0 0.0 1.0 1.0 5.0 1.0 1.0 8.0 1.0 1.0 7.0 1.0 1.0 4.0 1.0 1.0 4.0 1.0 1.0 8.0 1.0 1.0 8.0 1.0 1.0 0.0 1.0 1.0 6.0 1.0 1.0 3.0 1.0 1.0 4.0 1.0 1.0 5.0 1.0 1.0 3.0 1.0 1.0 4.0 1.0 1.0 6.0 1.0 1.0 8.0 1.0 1.0 0.0 1.0 1.0 0.0 1.0 1.0 5.0 1.0 1.0 9.0 1.0 1.0 3.0 1.0 1.0 1.0 1.0 1.0 9.0 1.0 1.0 4.0 1.0 1.0 1.0 1.0 1.0 9.0 1.0 1.0 9.0 1.0 1.0 5.0 1.0 1.0 2.0 1.0 1.0 2.0 1.0 1.0 9.0 1.0 1.0 7.0 1.0 1.0 9.0 1.0 1.0 8.0 1.0 1.0 4.0 1.0 1.0 8.0 1.0 1.0 5.0 1.0 1.0 7.0 1.0 1.0 2.0 1.0 1.0 9.0 1.0 1.0 1.0 1.0 1.0 8.0 1.0 1.0 5.0 1.0 1.0 2.0 1.0 1.0 5.0 1.0 1.0 8.0 1.0 1.0 7.0 1.0 1.0 3.0 1.0 1.0 2.0 1.0 1.0 6.0 1.0 1.0 2.0 1.0 1.0 7.0 1.0 1.0 2.0 1.0 1.0 3.0 1.0 1.0 4.0 1.0 1.0 3.0 1.0 1.0 2.0 1.0 1.0 4.0 1.0 1.0 9.0 1.0 1.0 9.0 1.0 1.0 8.0 1.0 1.0 5.0 1.0 1.0 6.0 1.0 1.0 7.0 1.0 1.0 3.0 1.0 1.0 3.0 1.0 1.0 8.0 1.0 1.0 4.0 1.0 1.0 9.0 1.0 1.0 3.0 1.0 1.0 2.0 1.0 1.0 0.0 1.0 1.0 0.0 1.0 1.0 2.0 1.0 1.0 7.0 1.0 1.0 2.0 1.0 1.0 4.0 1.0 1.0 5.0 1.0 1.0 1.0 1.0 1.0 9.0 1.0 1.0 5.0 1.0 1.0 8.0 1.0 1.0 0.0 1.0 1.0 7.0 1.0 1.0 1.0 1.0 1.0 4.0 1.0 1.0 3.0 1.0 1.0 1.0 1.0 1.0 9.0 1.0 1.0 6.0 1.0 1.0 2.0 1.0 1.0 8.0 1.0 1.0 9.0 1.0 1.0 7.0 1.0 1.0 0.0 1.0 1.0 6.0 1.0 1.0 4.0 1.0 1.0 0.0 1.0 1.0 0.0 1.0 1.0 4.0 1.0 1.0 1.0 1.0 1.0 7.0 1.0 1.0 1.0 1.0 1.0 9.0 1.0 1.0 1.0 1.0 1.0 0.0 1.0 1.0 2.0 1.0 1.0 3.0 1.0 1.0 4.0 1.0 1.0 3.0 1.0 1.0 5.0 1.0 1.0 4.0 1.0 1.0 3.0 1.0 1.0 4.0 1.0 1.0 8.0 1.0 1.0 1.0 1.0 1.0 2.0 1.0 1.0 6.0 1.0 1.0 7.0 1.0 1.0 2.0 1.0 1.0 0.0 1.0 1.0 3.0 1.0 1.0 8.0 1.0 1.0 2.0 1.0 1.0 0.0 1.0 1.0 4.0 1.0 1.0 2.0 1.0 1.0 7.0 1.0 1.0 3.0 1.0 1.0 3.0 1.0 1.0 0.0 1.0 1.0 4.0 1.0 1.0 2.0 1.0 1.0 2.0 1.0 1.0 7.0 1.0 1.0 2.0 1.0 1.0 5.0 1.0 1.0 4.0 1.0 1.0 9.0 1.0 1.0 3.0 1.0 1.0 2.0 1.0 1.0 6.0 1.0 1.0 2.0 1.0 1.0 8.0 1.0 1.0 7.0 1.0 1.0 7.0 1.0 1.0 8.0 1.0 1.0 2.0 1.0 1.0 2.0 1.0 1.0 9.0 1.0 1.0 6.0 1.0 1.0 6.0 1.0 1.0 9.0 1.0 1.0 4.0 1.0 1.0 0.0 1.0 1.0 1.0 1.0 1.0 1.0 1.0 1.0 8.0 1.0 1.0 8.0 1.0 1.0 1.0 1.0 1.0 8.0 1.0 1.0 7.0 1.0 1.0 5.0 1.0 1.0 0.0 1.0 1.0 8.0 1.0 1.0 7.0 1.0 1.0 8.0 1.0 1.0 8.0 1.0 1.0 0.0 1.0 1.0 1.0 1.0 1.0 0.0 1.0 1.0 0.0 1.0 1.0 6.0 1.0 1.0 9.0 1.0 1.0 5.0 1.0 1.0 0.0 1.0 1.0 3.0 1.0 1.0 3.0 1.0 1.0 5.0 1.0 1.0 5.0 1.0 1.0 2.0 1.0 1.0 0.0 1.0 1.0 8.0 1.0 1.0 0.0 1.0 1.0 3.0 1.0 1.0 3.0 1.0 1.0 2.0 1.0 1.0 4.0 1.0 1.0 9.0 1.0 1.0 9.0 1.0 1.0 0.0 1.0 1.0 9.0 1.0 1.0 3.0 1.0 1.0 7.0 1.0 1.0 8.0 1.0 1.0 5.0 1.0 1.0 6.0 1.0 1.0 4.0 1.0 1.0 8.0 1.0 1.0 1.0 1.0 1.0 0.0 1.0 1.0 4.0 1.0 1.0 9.0 1.0 1.0 0.0 1.0 1.0 1.0 1.0 1.0 6.0 1.0 1.0 1.0 1.0 1.0 0.0 1.0 1.0 9.0 1.0 1.0 7.0 1.0 1.0 1.0 1.0 1.0 9.0 1.0 1.0 7.0 1.0 1.0 5.0 1.0 1.0 2.0 1.0 1.0 2.0 1.0 1.0 9.0 1.0 1.0 5.0 1.0 1.0 0.0 1.0 1.0 4.0 1.0 1.0 8.0 1.0 1.0 5.0 1.0 1.0 6.0 1.0 1.0 5.0 1.0 1.0 6.0 1.0 1.0 0.0 1.0 1.0 4.0 1.0 1.0 3.0 1.0 1.0 6.0 1.0 1.0 9.0 1.0 1.0 7.0 1.0 1.0 8.0 1.0 1.0 2.0 1.0 1.0 1.0 1.0 1.0 5.0 1.0 1.0 3.0 1.0 1.0 4.0 1.0 1.0 7.0 1.0 1.0 3.0 1.0 1.0 9.0 1.0 1.0 1.0 1.0 1.0 9.0 1.0 1.0 7.0 1.0 1.0 4.0 1.0 1.0 6.0 1.0 1.0 0.0 1.0 1.0 0.0 1.0 1.0 5.0 1.0 1.0 2.0 1.0 1.0 4.0 1.0 1.0 4.0 1.0 1.0 8.0 1.0 1.0 6.0 1.0 1.0 2.0 1.0 1.0 1.0 1.0 1.0 8.0 1.0 1.0 9.0 1.0 1.0 9.0 1.0 1.0 9.0 1.0 1.0 0.0 1.0 1.0 7.0 1.0 1.0 4.0 1.0 1.0 9.0 1.0 1.0 8.0 1.0 1.0 8.0 1.0 1.0 1.0 1.0 1.0 3.0 1.0 1.0 7.0 1.0 1.0 2.0 1.0 1.0 0.0 1.0 1.0 9.0 1.0 1.0 1.0 1.0 1.0 6.0 1.0 1.0 8.0 1.0 1.0 0.0 1.0 1.0 7.0 1.0 1.0 9.0 1.0 1.0 4.0 1.0 1.0 0.0 1.0 1.0 1.0 1.0 1.0 6.0 1.0 1.0 5.0 1.0 1.0 3.0 1.0 1.0 6.0 1.0 1.0 1.0 1.0 1.0 2.0 1.0 1.0 4.0 1.0 1.0 3.0 1.0 1.0 3.0 1.0 1.0 4.0 1.0 1.0 0.0 1.0 1.0 7.0 1.0 1.0 1.0 1.0 1.0 1.0 1.0 1.0 0.0 1.0 1.0 6.0 1.0 1.0 4.0 1.0 1.0 6.0 1.0 1.0 0.0 1.0 1.0 7.0 1.0 1.0 5.0 1.0 1.0 6.0 1.0 1.0 4.0 1.0 1.0 0.0 1.0 1.0 8.0 1.0 1.0 1.0 1.0 1.0 0.0 1.0 1.0 5.0 1.0 1.0 1.0 1.0 1.0 6.0 1.0 1.0 6.0 1.0 1.0 3.0 1.0 1.0 3.0 1.0 1.0 5.0 1.0 1.0 2.0 1.0 1.0 8.0 1.0 1.0 4.0 1.0 1.0 8.0 1.0 1.0 1.0 1.0 1.0 8.0 1.0 1.0 7.0 1.0 1.0 9.0 1.0 1.0 1.0 1.0 1.0 3.0 1.0 1.0 2.0 1.0 1.0 3.0 1.0 1.0 4.0 1.0 1.0 3.0 1.0 1.0 3.0 1.0 1.0 4.0 1.0 1.0 4.0 1.0 1.0 6.0 1.0 1.0 7.0 1.0 1.0 6.0 1.0 1.0 6.0 1.0 1.0 2.0 1.0 1.0 9.0 1.0 1.0 9.0 1.0 1.0 7.0 1.0 1.0 8.0 1.0 1.0 1.0 1.0 1.0 6.0 1.0 1.0 2.0 1.0 1.0 3.0 1.0 1.0 9.0 1.0 1.0 1.0 1.0 1.0 3.0 1.0 1.0 8.0 1.0 1.0 5.0 1.0 1.0 4.0 1.0 1.0 2.0 1.0 1.0 4.0 1.0 1.0 7.0 1.0 1.0 1.0 1.0 1.0 1.0 1.0 1.0 9.0 1.0 1.0 4.0 1.0 1.0 3.0 1.0 1.0 1.0 1.0 1.0 8.0 1.0 1.0 2.0 1.0 1.0 3.0 1.0 1.0 4.0 1.0 1.0 0.0 1.0 1.0 3.0 1.0 1.0 9.0 1.0 1.0 3.0 1.0 1.0 1.0 1.0 1.0 4.0 1.0 1.0 6.0 1.0 1.0 5.0 1.0 1.0 3.0 1.0 1.0 9.0
3 1.0 1.0 1.0
